CUSTOMERS : 10
VEHICLES : 6
0 139 153 363 312 295 355 74 236 183 365 
496 0 455 257 209 326 90 81 100 326 45 
340 315 0 445 234 500 478 71 454 145 127 
383 83 385 0 208 176 326 68 249 144 494 
30 368 265 374 0 434 126 228 300 207 63 
192 218 269 106 341 0 80 193 75 477 426 
239 491 294 24 267 492 0 63 466 351 481 
474 368 343 421 13 244 102 0 378 195 220 
467 117 457 277 159 421 137 175 0 404 353 
452 45 89 401 63 207 213 232 311 0 262 
160 252 444 27 164 194 315 226 476 238 0 
